c File: flat150_3_0.col
c
c SOURCE: Joseph Culberson (joe@cs.ualberta.ca)
c DESCRIPTION: Quasi-random coloring problem
c              generated with flatness = 0
c                             probability = 0.048
c                             known coloring = 3
c                             random seed = 1067
c              Creation Date:  Wed Feb 24 10:37:41 1999
c Maximum degree = 8 Minimum degree = 0
c COLOR VERIFICATION: Using the permuted order
c under simple greedy yields the specified
c coloring number
c Color = 3 specified partitions = 3
c p edge 150 360
c cnf created by edge2cnf
p cnf 450 1680
-1 -2 0
-1 -3 0
-2 -3 0
1 2 3 0
-4 -5 0
-4 -6 0
-5 -6 0
4 5 6 0
-7 -8 0
-7 -9 0
-8 -9 0
7 8 9 0
-10 -11 0
-10 -12 0
-11 -12 0
10 11 12 0
-13 -14 0
-13 -15 0
-14 -15 0
13 14 15 0
-16 -17 0
-16 -18 0
-17 -18 0
16 17 18 0
-19 -20 0
-19 -21 0
-20 -21 0
19 20 21 0
-22 -23 0
-22 -24 0
-23 -24 0
22 23 24 0
-25 -26 0
-25 -27 0
-26 -27 0
25 26 27 0
-28 -29 0
-28 -30 0
-29 -30 0
28 29 30 0
-31 -32 0
-31 -33 0
-32 -33 0
31 32 33 0
-34 -35 0
-34 -36 0
-35 -36 0
34 35 36 0
-37 -38 0
-37 -39 0
-38 -39 0
37 38 39 0
-40 -41 0
-40 -42 0
-41 -42 0
40 41 42 0
-43 -44 0
-43 -45 0
-44 -45 0
43 44 45 0
-46 -47 0
-46 -48 0
-47 -48 0
46 47 48 0
-49 -50 0
-49 -51 0
-50 -51 0
49 50 51 0
-52 -53 0
-52 -54 0
-53 -54 0
52 53 54 0
-55 -56 0
-55 -57 0
-56 -57 0
55 56 57 0
-58 -59 0
-58 -60 0
-59 -60 0
58 59 60 0
-61 -62 0
-61 -63 0
-62 -63 0
61 62 63 0
-64 -65 0
-64 -66 0
-65 -66 0
64 65 66 0
-67 -68 0
-67 -69 0
-68 -69 0
67 68 69 0
-70 -71 0
-70 -72 0
-71 -72 0
70 71 72 0
-73 -74 0
-73 -75 0
-74 -75 0
73 74 75 0
-76 -77 0
-76 -78 0
-77 -78 0
76 77 78 0
-79 -80 0
-79 -81 0
-80 -81 0
79 80 81 0
-82 -83 0
-82 -84 0
-83 -84 0
82 83 84 0
-85 -86 0
-85 -87 0
-86 -87 0
85 86 87 0
-88 -89 0
-88 -90 0
-89 -90 0
88 89 90 0
-91 -92 0
-91 -93 0
-92 -93 0
91 92 93 0
-94 -95 0
-94 -96 0
-95 -96 0
94 95 96 0
-97 -98 0
-97 -99 0
-98 -99 0
97 98 99 0
-100 -101 0
-100 -102 0
-101 -102 0
100 101 102 0
-103 -104 0
-103 -105 0
-104 -105 0
103 104 105 0
-106 -107 0
-106 -108 0
-107 -108 0
106 107 108 0
-109 -110 0
-109 -111 0
-110 -111 0
109 110 111 0
-112 -113 0
-112 -114 0
-113 -114 0
112 113 114 0
-115 -116 0
-115 -117 0
-116 -117 0
115 116 117 0
-118 -119 0
-118 -120 0
-119 -120 0
118 119 120 0
-121 -122 0
-121 -123 0
-122 -123 0
121 122 123 0
-124 -125 0
-124 -126 0
-125 -126 0
124 125 126 0
-127 -128 0
-127 -129 0
-128 -129 0
127 128 129 0
-130 -131 0
-130 -132 0
-131 -132 0
130 131 132 0
-133 -134 0
-133 -135 0
-134 -135 0
133 134 135 0
-136 -137 0
-136 -138 0
-137 -138 0
136 137 138 0
-139 -140 0
-139 -141 0
-140 -141 0
139 140 141 0
-142 -143 0
-142 -144 0
-143 -144 0
142 143 144 0
-145 -146 0
-145 -147 0
-146 -147 0
145 146 147 0
-148 -149 0
-148 -150 0
-149 -150 0
148 149 150 0
-151 -152 0
-151 -153 0
-152 -153 0
151 152 153 0
-154 -155 0
-154 -156 0
-155 -156 0
154 155 156 0
-157 -158 0
-157 -159 0
-158 -159 0
157 158 159 0
-160 -161 0
-160 -162 0
-161 -162 0
160 161 162 0
-163 -164 0
-163 -165 0
-164 -165 0
163 164 165 0
-166 -167 0
-166 -168 0
-167 -168 0
166 167 168 0
-169 -170 0
-169 -171 0
-170 -171 0
169 170 171 0
-172 -173 0
-172 -174 0
-173 -174 0
172 173 174 0
-175 -176 0
-175 -177 0
-176 -177 0
175 176 177 0
-178 -179 0
-178 -180 0
-179 -180 0
178 179 180 0
-181 -182 0
-181 -183 0
-182 -183 0
181 182 183 0
-184 -185 0
-184 -186 0
-185 -186 0
184 185 186 0
-187 -188 0
-187 -189 0
-188 -189 0
187 188 189 0
-190 -191 0
-190 -192 0
-191 -192 0
190 191 192 0
-193 -194 0
-193 -195 0
-194 -195 0
193 194 195 0
-196 -197 0
-196 -198 0
-197 -198 0
196 197 198 0
-199 -200 0
-199 -201 0
-200 -201 0
199 200 201 0
-202 -203 0
-202 -204 0
-203 -204 0
202 203 204 0
-205 -206 0
-205 -207 0
-206 -207 0
205 206 207 0
-208 -209 0
-208 -210 0
-209 -210 0
208 209 210 0
-211 -212 0
-211 -213 0
-212 -213 0
211 212 213 0
-214 -215 0
-214 -216 0
-215 -216 0
214 215 216 0
-217 -218 0
-217 -219 0
-218 -219 0
217 218 219 0
-220 -221 0
-220 -222 0
-221 -222 0
220 221 222 0
-223 -224 0
-223 -225 0
-224 -225 0
223 224 225 0
-226 -227 0
-226 -228 0
-227 -228 0
226 227 228 0
-229 -230 0
-229 -231 0
-230 -231 0
229 230 231 0
-232 -233 0
-232 -234 0
-233 -234 0
232 233 234 0
-235 -236 0
-235 -237 0
-236 -237 0
235 236 237 0
-238 -239 0
-238 -240 0
-239 -240 0
238 239 240 0
-241 -242 0
-241 -243 0
-242 -243 0
241 242 243 0
-244 -245 0
-244 -246 0
-245 -246 0
244 245 246 0
-247 -248 0
-247 -249 0
-248 -249 0
247 248 249 0
-250 -251 0
-250 -252 0
-251 -252 0
250 251 252 0
-253 -254 0
-253 -255 0
-254 -255 0
253 254 255 0
-256 -257 0
-256 -258 0
-257 -258 0
256 257 258 0
-259 -260 0
-259 -261 0
-260 -261 0
259 260 261 0
-262 -263 0
-262 -264 0
-263 -264 0
262 263 264 0
-265 -266 0
-265 -267 0
-266 -267 0
265 266 267 0
-268 -269 0
-268 -270 0
-269 -270 0
268 269 270 0
-271 -272 0
-271 -273 0
-272 -273 0
271 272 273 0
-274 -275 0
-274 -276 0
-275 -276 0
274 275 276 0
-277 -278 0
-277 -279 0
-278 -279 0
277 278 279 0
-280 -281 0
-280 -282 0
-281 -282 0
280 281 282 0
-283 -284 0
-283 -285 0
-284 -285 0
283 284 285 0
-286 -287 0
-286 -288 0
-287 -288 0
286 287 288 0
-289 -290 0
-289 -291 0
-290 -291 0
289 290 291 0
-292 -293 0
-292 -294 0
-293 -294 0
292 293 294 0
-295 -296 0
-295 -297 0
-296 -297 0
295 296 297 0
-298 -299 0
-298 -300 0
-299 -300 0
298 299 300 0
-301 -302 0
-301 -303 0
-302 -303 0
301 302 303 0
-304 -305 0
-304 -306 0
-305 -306 0
304 305 306 0
-307 -308 0
-307 -309 0
-308 -309 0
307 308 309 0
-310 -311 0
-310 -312 0
-311 -312 0
310 311 312 0
-313 -314 0
-313 -315 0
-314 -315 0
313 314 315 0
-316 -317 0
-316 -318 0
-317 -318 0
316 317 318 0
-319 -320 0
-319 -321 0
-320 -321 0
319 320 321 0
-322 -323 0
-322 -324 0
-323 -324 0
322 323 324 0
-325 -326 0
-325 -327 0
-326 -327 0
325 326 327 0
-328 -329 0
-328 -330 0
-329 -330 0
328 329 330 0
-331 -332 0
-331 -333 0
-332 -333 0
331 332 333 0
-334 -335 0
-334 -336 0
-335 -336 0
334 335 336 0
-337 -338 0
-337 -339 0
-338 -339 0
337 338 339 0
-340 -341 0
-340 -342 0
-341 -342 0
340 341 342 0
-343 -344 0
-343 -345 0
-344 -345 0
343 344 345 0
-346 -347 0
-346 -348 0
-347 -348 0
346 347 348 0
-349 -350 0
-349 -351 0
-350 -351 0
349 350 351 0
-352 -353 0
-352 -354 0
-353 -354 0
352 353 354 0
-355 -356 0
-355 -357 0
-356 -357 0
355 356 357 0
-358 -359 0
-358 -360 0
-359 -360 0
358 359 360 0
-361 -362 0
-361 -363 0
-362 -363 0
361 362 363 0
-364 -365 0
-364 -366 0
-365 -366 0
364 365 366 0
-367 -368 0
-367 -369 0
-368 -369 0
367 368 369 0
-370 -371 0
-370 -372 0
-371 -372 0
370 371 372 0
-373 -374 0
-373 -375 0
-374 -375 0
373 374 375 0
-376 -377 0
-376 -378 0
-377 -378 0
376 377 378 0
-379 -380 0
-379 -381 0
-380 -381 0
379 380 381 0
-382 -383 0
-382 -384 0
-383 -384 0
382 383 384 0
-385 -386 0
-385 -387 0
-386 -387 0
385 386 387 0
-388 -389 0
-388 -390 0
-389 -390 0
388 389 390 0
-391 -392 0
-391 -393 0
-392 -393 0
391 392 393 0
-394 -395 0
-394 -396 0
-395 -396 0
394 395 396 0
-397 -398 0
-397 -399 0
-398 -399 0
397 398 399 0
-400 -401 0
-400 -402 0
-401 -402 0
400 401 402 0
-403 -404 0
-403 -405 0
-404 -405 0
403 404 405 0
-406 -407 0
-406 -408 0
-407 -408 0
406 407 408 0
-409 -410 0
-409 -411 0
-410 -411 0
409 410 411 0
-412 -413 0
-412 -414 0
-413 -414 0
412 413 414 0
-415 -416 0
-415 -417 0
-416 -417 0
415 416 417 0
-418 -419 0
-418 -420 0
-419 -420 0
418 419 420 0
-421 -422 0
-421 -423 0
-422 -423 0
421 422 423 0
-424 -425 0
-424 -426 0
-425 -426 0
424 425 426 0
-427 -428 0
-427 -429 0
-428 -429 0
427 428 429 0
-430 -431 0
-430 -432 0
-431 -432 0
430 431 432 0
-433 -434 0
-433 -435 0
-434 -435 0
433 434 435 0
-436 -437 0
-436 -438 0
-437 -438 0
436 437 438 0
-439 -440 0
-439 -441 0
-440 -441 0
439 440 441 0
-442 -443 0
-442 -444 0
-443 -444 0
442 443 444 0
-445 -446 0
-445 -447 0
-446 -447 0
445 446 447 0
-448 -449 0
-448 -450 0
-449 -450 0
448 449 450 0
-70 -1 0
-71 -2 0
-72 -3 0
-85 -1 0
-86 -2 0
-87 -3 0
-112 -1 0
-113 -2 0
-114 -3 0
-154 -1 0
-155 -2 0
-156 -3 0
-358 -1 0
-359 -2 0
-360 -3 0
-34 -4 0
-35 -5 0
-36 -6 0
-139 -4 0
-140 -5 0
-141 -6 0
-298 -4 0
-299 -5 0
-300 -6 0
-40 -7 0
-41 -8 0
-42 -9 0
-76 -7 0
-77 -8 0
-78 -9 0
-91 -7 0
-92 -8 0
-93 -9 0
-364 -7 0
-365 -8 0
-366 -9 0
-430 -7 0
-431 -8 0
-432 -9 0
-97 -10 0
-98 -11 0
-99 -12 0
-112 -10 0
-113 -11 0
-114 -12 0
-118 -10 0
-119 -11 0
-120 -12 0
-361 -10 0
-362 -11 0
-363 -12 0
-415 -10 0
-416 -11 0
-417 -12 0
-418 -10 0
-419 -11 0
-420 -12 0
-436 -10 0
-437 -11 0
-438 -12 0
-19 -13 0
-20 -14 0
-21 -15 0
-214 -13 0
-215 -14 0
-216 -15 0
-319 -13 0
-320 -14 0
-321 -15 0
-112 -16 0
-113 -17 0
-114 -18 0
-151 -16 0
-152 -17 0
-153 -18 0
-172 -16 0
-173 -17 0
-174 -18 0
-325 -16 0
-326 -17 0
-327 -18 0
-439 -16 0
-440 -17 0
-441 -18 0
-178 -19 0
-179 -20 0
-180 -21 0
-313 -19 0
-314 -20 0
-315 -21 0
-334 -19 0
-335 -20 0
-336 -21 0
-346 -19 0
-347 -20 0
-348 -21 0
-370 -19 0
-371 -20 0
-372 -21 0
-190 -22 0
-191 -23 0
-192 -24 0
-253 -22 0
-254 -23 0
-255 -24 0
-265 -22 0
-266 -23 0
-267 -24 0
-361 -22 0
-362 -23 0
-363 -24 0
-385 -22 0
-386 -23 0
-387 -24 0
-412 -22 0
-413 -23 0
-414 -24 0
-40 -25 0
-41 -26 0
-42 -27 0
-169 -25 0
-170 -26 0
-171 -27 0
-214 -25 0
-215 -26 0
-216 -27 0
-346 -25 0
-347 -26 0
-348 -27 0
-388 -25 0
-389 -26 0
-390 -27 0
-52 -28 0
-53 -29 0
-54 -30 0
-136 -28 0
-137 -29 0
-138 -30 0
-139 -28 0
-140 -29 0
-141 -30 0
-154 -28 0
-155 -29 0
-156 -30 0
-184 -28 0
-185 -29 0
-186 -30 0
-274 -28 0
-275 -29 0
-276 -30 0
-316 -28 0
-317 -29 0
-318 -30 0
-325 -28 0
-326 -29 0
-327 -30 0
-55 -31 0
-56 -32 0
-57 -33 0
-109 -31 0
-110 -32 0
-111 -33 0
-157 -31 0
-158 -32 0
-159 -33 0
-244 -31 0
-245 -32 0
-246 -33 0
-319 -34 0
-320 -35 0
-321 -36 0
-373 -34 0
-374 -35 0
-375 -36 0
-70 -37 0
-71 -38 0
-72 -39 0
-187 -37 0
-188 -38 0
-189 -39 0
-328 -37 0
-329 -38 0
-330 -39 0
-433 -37 0
-434 -38 0
-435 -39 0
-67 -40 0
-68 -41 0
-69 -42 0
-166 -40 0
-167 -41 0
-168 -42 0
-247 -40 0
-248 -41 0
-249 -42 0
-436 -40 0
-437 -41 0
-438 -42 0
-52 -43 0
-53 -44 0
-54 -45 0
-61 -43 0
-62 -44 0
-63 -45 0
-76 -43 0
-77 -44 0
-78 -45 0
-106 -43 0
-107 -44 0
-108 -45 0
-280 -43 0
-281 -44 0
-282 -45 0
-313 -43 0
-314 -44 0
-315 -45 0
-394 -43 0
-395 -44 0
-396 -45 0
-55 -46 0
-56 -47 0
-57 -48 0
-64 -46 0
-65 -47 0
-66 -48 0
-82 -46 0
-83 -47 0
-84 -48 0
-85 -46 0
-86 -47 0
-87 -48 0
-202 -46 0
-203 -47 0
-204 -48 0
-118 -49 0
-119 -50 0
-120 -51 0
-262 -49 0
-263 -50 0
-264 -51 0
-196 -52 0
-197 -53 0
-198 -54 0
-298 -52 0
-299 -53 0
-300 -54 0
-304 -52 0
-305 -53 0
-306 -54 0
-352 -52 0
-353 -53 0
-354 -54 0
-136 -55 0
-137 -56 0
-138 -57 0
-235 -55 0
-236 -56 0
-237 -57 0
-250 -55 0
-251 -56 0
-252 -57 0
-253 -55 0
-254 -56 0
-255 -57 0
-355 -55 0
-356 -56 0
-357 -57 0
-235 -58 0
-236 -59 0
-237 -60 0
-238 -58 0
-239 -59 0
-240 -60 0
-274 -58 0
-275 -59 0
-276 -60 0
-400 -58 0
-401 -59 0
-402 -60 0
-67 -61 0
-68 -62 0
-69 -63 0
-118 -61 0
-119 -62 0
-120 -63 0
-214 -61 0
-215 -62 0
-216 -63 0
-247 -61 0
-248 -62 0
-249 -63 0
-334 -61 0
-335 -62 0
-336 -63 0
-349 -61 0
-350 -62 0
-351 -63 0
-436 -61 0
-437 -62 0
-438 -63 0
-85 -64 0
-86 -65 0
-87 -66 0
-97 -64 0
-98 -65 0
-99 -66 0
-184 -64 0
-185 -65 0
-186 -66 0
-289 -64 0
-290 -65 0
-291 -66 0
-403 -64 0
-404 -65 0
-405 -66 0
-448 -64 0
-449 -65 0
-450 -66 0
-253 -67 0
-254 -68 0
-255 -69 0
-271 -67 0
-272 -68 0
-273 -69 0
-322 -67 0
-323 -68 0
-324 -69 0
-364 -67 0
-365 -68 0
-366 -69 0
-76 -70 0
-77 -71 0
-78 -72 0
-211 -70 0
-212 -71 0
-213 -72 0
-301 -70 0
-302 -71 0
-303 -72 0
-376 -70 0
-377 -71 0
-378 -72 0
-184 -73 0
-185 -74 0
-186 -75 0
-226 -73 0
-227 -74 0
-228 -75 0
-274 -73 0
-275 -74 0
-276 -75 0
-292 -73 0
-293 -74 0
-294 -75 0
-310 -73 0
-311 -74 0
-312 -75 0
-313 -73 0
-314 -74 0
-315 -75 0
-415 -73 0
-416 -74 0
-417 -75 0
-424 -73 0
-425 -74 0
-426 -75 0
-214 -76 0
-215 -77 0
-216 -78 0
-448 -76 0
-449 -77 0
-450 -78 0
-202 -79 0
-203 -80 0
-204 -81 0
-238 -79 0
-239 -80 0
-240 -81 0
-271 -79 0
-272 -80 0
-273 -81 0
-277 -79 0
-278 -80 0
-279 -81 0
-286 -79 0
-287 -80 0
-288 -81 0
-94 -82 0
-95 -83 0
-96 -84 0
-265 -82 0
-266 -83 0
-267 -84 0
-424 -82 0
-425 -83 0
-426 -84 0
-139 -85 0
-140 -86 0
-141 -87 0
-280 -85 0
-281 -86 0
-282 -87 0
-286 -85 0
-287 -86 0
-288 -87 0
-241 -88 0
-242 -89 0
-243 -90 0
-262 -88 0
-263 -89 0
-264 -90 0
-268 -88 0
-269 -89 0
-270 -90 0
-379 -91 0
-380 -92 0
-381 -93 0
-394 -91 0
-395 -92 0
-396 -93 0
-199 -94 0
-200 -95 0
-201 -96 0
-409 -94 0
-410 -95 0
-411 -96 0
-121 -97 0
-122 -98 0
-123 -99 0
-247 -97 0
-248 -98 0
-249 -99 0
-310 -97 0
-311 -98 0
-312 -99 0
-415 -97 0
-416 -98 0
-417 -99 0
-445 -97 0
-446 -98 0
-447 -99 0
-160 -103 0
-161 -104 0
-162 -105 0
-331 -103 0
-332 -104 0
-333 -105 0
-448 -103 0
-449 -104 0
-450 -105 0
-169 -106 0
-170 -107 0
-171 -108 0
-211 -106 0
-212 -107 0
-213 -108 0
-262 -106 0
-263 -107 0
-264 -108 0
-439 -106 0
-440 -107 0
-441 -108 0
-178 -109 0
-179 -110 0
-180 -111 0
-223 -109 0
-224 -110 0
-225 -111 0
-424 -109 0
-425 -110 0
-426 -111 0
-130 -112 0
-131 -113 0
-132 -114 0
-187 -112 0
-188 -113 0
-189 -114 0
-238 -112 0
-239 -113 0
-240 -114 0
-364 -112 0
-365 -113 0
-366 -114 0
-379 -112 0
-380 -113 0
-381 -114 0
-142 -115 0
-143 -116 0
-144 -117 0
-286 -115 0
-287 -116 0
-288 -117 0
-301 -115 0
-302 -116 0
-303 -117 0
-337 -115 0
-338 -116 0
-339 -117 0
-418 -115 0
-419 -116 0
-420 -117 0
-196 -118 0
-197 -119 0
-198 -120 0
-295 -118 0
-296 -119 0
-297 -120 0
-214 -121 0
-215 -122 0
-216 -123 0
-274 -121 0
-275 -122 0
-276 -123 0
-148 -124 0
-149 -125 0
-150 -126 0
-196 -124 0
-197 -125 0
-198 -126 0
-295 -124 0
-296 -125 0
-297 -126 0
-370 -124 0
-371 -125 0
-372 -126 0
-373 -127 0
-374 -128 0
-375 -129 0
-391 -127 0
-392 -128 0
-393 -129 0
-181 -130 0
-182 -131 0
-183 -132 0
-301 -130 0
-302 -131 0
-303 -132 0
-310 -130 0
-311 -131 0
-312 -132 0
-436 -130 0
-437 -131 0
-438 -132 0
-274 -133 0
-275 -134 0
-276 -135 0
-307 -133 0
-308 -134 0
-309 -135 0
-355 -133 0
-356 -134 0
-357 -135 0
-436 -133 0
-437 -134 0
-438 -135 0
-205 -136 0
-206 -137 0
-207 -138 0
-256 -136 0
-257 -137 0
-258 -138 0
-292 -136 0
-293 -137 0
-294 -138 0
-322 -136 0
-323 -137 0
-324 -138 0
-184 -139 0
-185 -140 0
-186 -141 0
-277 -139 0
-278 -140 0
-279 -141 0
-331 -139 0
-332 -140 0
-333 -141 0
-175 -142 0
-176 -143 0
-177 -144 0
-259 -142 0
-260 -143 0
-261 -144 0
-268 -142 0
-269 -143 0
-270 -144 0
-298 -142 0
-299 -143 0
-300 -144 0
-244 -145 0
-245 -146 0
-246 -147 0
-373 -145 0
-374 -146 0
-375 -147 0
-439 -145 0
-440 -146 0
-441 -147 0
-160 -148 0
-161 -149 0
-162 -150 0
-199 -148 0
-200 -149 0
-201 -150 0
-283 -148 0
-284 -149 0
-285 -150 0
-391 -148 0
-392 -149 0
-393 -150 0
-418 -148 0
-419 -149 0
-420 -150 0
-172 -151 0
-173 -152 0
-174 -153 0
-190 -151 0
-191 -152 0
-192 -153 0
-208 -151 0
-209 -152 0
-210 -153 0
-433 -151 0
-434 -152 0
-435 -153 0
-298 -154 0
-299 -155 0
-300 -156 0
-331 -154 0
-332 -155 0
-333 -156 0
-367 -154 0
-368 -155 0
-369 -156 0
-346 -157 0
-347 -158 0
-348 -159 0
-439 -157 0
-440 -158 0
-441 -159 0
-205 -160 0
-206 -161 0
-207 -162 0
-274 -160 0
-275 -161 0
-276 -162 0
-427 -160 0
-428 -161 0
-429 -162 0
-292 -163 0
-293 -164 0
-294 -165 0
-370 -163 0
-371 -164 0
-372 -165 0
-400 -163 0
-401 -164 0
-402 -165 0
-430 -163 0
-431 -164 0
-432 -165 0
-259 -166 0
-260 -167 0
-261 -168 0
-265 -166 0
-266 -167 0
-267 -168 0
-424 -166 0
-425 -167 0
-426 -168 0
-343 -169 0
-344 -170 0
-345 -171 0
-385 -169 0
-386 -170 0
-387 -171 0
-196 -172 0
-197 -173 0
-198 -174 0
-226 -172 0
-227 -173 0
-228 -174 0
-322 -172 0
-323 -173 0
-324 -174 0
-373 -172 0
-374 -173 0
-375 -174 0
-220 -175 0
-221 -176 0
-222 -177 0
-319 -175 0
-320 -176 0
-321 -177 0
-340 -175 0
-341 -176 0
-342 -177 0
-430 -175 0
-431 -176 0
-432 -177 0
-250 -181 0
-251 -182 0
-252 -183 0
-346 -184 0
-347 -185 0
-348 -186 0
-397 -184 0
-398 -185 0
-399 -186 0
-256 -187 0
-257 -188 0
-258 -189 0
-268 -187 0
-269 -188 0
-270 -189 0
-301 -187 0
-302 -188 0
-303 -189 0
-352 -187 0
-353 -188 0
-354 -189 0
-406 -190 0
-407 -191 0
-408 -192 0
-445 -190 0
-446 -191 0
-447 -192 0
-265 -193 0
-266 -194 0
-267 -195 0
-322 -193 0
-323 -194 0
-324 -195 0
-361 -193 0
-362 -194 0
-363 -195 0
-370 -193 0
-371 -194 0
-372 -195 0
-244 -196 0
-245 -197 0
-246 -198 0
-328 -196 0
-329 -197 0
-330 -198 0
-391 -196 0
-392 -197 0
-393 -198 0
-265 -199 0
-266 -200 0
-267 -201 0
-214 -202 0
-215 -203 0
-216 -204 0
-298 -202 0
-299 -203 0
-300 -204 0
-247 -205 0
-248 -206 0
-249 -207 0
-307 -205 0
-308 -206 0
-309 -207 0
-310 -205 0
-311 -206 0
-312 -207 0
-331 -205 0
-332 -206 0
-333 -207 0
-244 -208 0
-245 -209 0
-246 -210 0
-247 -208 0
-248 -209 0
-249 -210 0
-283 -208 0
-284 -209 0
-285 -210 0
-307 -208 0
-308 -209 0
-309 -210 0
-328 -211 0
-329 -212 0
-330 -213 0
-223 -214 0
-224 -215 0
-225 -216 0
-370 -214 0
-371 -215 0
-372 -216 0
-256 -217 0
-257 -218 0
-258 -219 0
-286 -217 0
-287 -218 0
-288 -219 0
-310 -217 0
-311 -218 0
-312 -219 0
-313 -217 0
-314 -218 0
-315 -219 0
-367 -217 0
-368 -218 0
-369 -219 0
-259 -220 0
-260 -221 0
-261 -222 0
-271 -220 0
-272 -221 0
-273 -222 0
-439 -223 0
-440 -224 0
-441 -225 0
-442 -223 0
-443 -224 0
-444 -225 0
-307 -226 0
-308 -227 0
-309 -228 0
-331 -226 0
-332 -227 0
-333 -228 0
-397 -226 0
-398 -227 0
-399 -228 0
-250 -229 0
-251 -230 0
-252 -231 0
-352 -229 0
-353 -230 0
-354 -231 0
-427 -232 0
-428 -233 0
-429 -234 0
-256 -235 0
-257 -236 0
-258 -237 0
-310 -235 0
-311 -236 0
-312 -237 0
-406 -235 0
-407 -236 0
-408 -237 0
-241 -238 0
-242 -239 0
-243 -240 0
-286 -238 0
-287 -239 0
-288 -240 0
-352 -238 0
-353 -239 0
-354 -240 0
-406 -238 0
-407 -239 0
-408 -240 0
-250 -241 0
-251 -242 0
-252 -243 0
-352 -241 0
-353 -242 0
-354 -243 0
-388 -241 0
-389 -242 0
-390 -243 0
-358 -244 0
-359 -245 0
-360 -246 0
-331 -247 0
-332 -248 0
-333 -249 0
-280 -250 0
-281 -251 0
-282 -252 0
-367 -250 0
-368 -251 0
-369 -252 0
-442 -250 0
-443 -251 0
-444 -252 0
-268 -253 0
-269 -254 0
-270 -255 0
-289 -253 0
-290 -254 0
-291 -255 0
-388 -253 0
-389 -254 0
-390 -255 0
-415 -253 0
-416 -254 0
-417 -255 0
-325 -256 0
-326 -257 0
-327 -258 0
-379 -256 0
-380 -257 0
-381 -258 0
-433 -256 0
-434 -257 0
-435 -258 0
-367 -259 0
-368 -260 0
-369 -261 0
-448 -259 0
-449 -260 0
-450 -261 0
-343 -262 0
-344 -263 0
-345 -264 0
-382 -262 0
-383 -263 0
-384 -264 0
-295 -268 0
-296 -269 0
-297 -270 0
-337 -268 0
-338 -269 0
-339 -270 0
-406 -268 0
-407 -269 0
-408 -270 0
-418 -268 0
-419 -269 0
-420 -270 0
-307 -271 0
-308 -272 0
-309 -273 0
-292 -274 0
-293 -275 0
-294 -276 0
-301 -277 0
-302 -278 0
-303 -279 0
-316 -277 0
-317 -278 0
-318 -279 0
-313 -280 0
-314 -281 0
-315 -282 0
-328 -280 0
-329 -281 0
-330 -282 0
-301 -283 0
-302 -284 0
-303 -285 0
-388 -283 0
-389 -284 0
-390 -285 0
-298 -286 0
-299 -287 0
-300 -288 0
-364 -286 0
-365 -287 0
-366 -288 0
-328 -289 0
-329 -290 0
-330 -291 0
-400 -289 0
-401 -290 0
-402 -291 0
-409 -292 0
-410 -293 0
-411 -294 0
-412 -298 0
-413 -299 0
-414 -300 0
-409 -301 0
-410 -302 0
-411 -303 0
-430 -304 0
-431 -305 0
-432 -306 0
-331 -307 0
-332 -308 0
-333 -309 0
-430 -313 0
-431 -314 0
-432 -315 0
-340 -316 0
-341 -317 0
-342 -318 0
-367 -316 0
-368 -317 0
-369 -318 0
-412 -316 0
-413 -317 0
-414 -318 0
-364 -319 0
-365 -320 0
-366 -321 0
-382 -322 0
-383 -323 0
-384 -324 0
-367 -325 0
-368 -326 0
-369 -327 0
-415 -325 0
-416 -326 0
-417 -327 0
-370 -328 0
-371 -329 0
-372 -330 0
-379 -328 0
-380 -329 0
-381 -330 0
-400 -334 0
-401 -335 0
-402 -336 0
-361 -337 0
-362 -338 0
-363 -339 0
-367 -337 0
-368 -338 0
-369 -339 0
-415 -337 0
-416 -338 0
-417 -339 0
-445 -337 0
-446 -338 0
-447 -339 0
-448 -337 0
-449 -338 0
-450 -339 0
-358 -346 0
-359 -347 0
-360 -348 0
-361 -349 0
-362 -350 0
-363 -351 0
-448 -349 0
-449 -350 0
-450 -351 0
-388 -355 0
-389 -356 0
-390 -357 0
-388 -358 0
-389 -359 0
-390 -360 0
-442 -361 0
-443 -362 0
-444 -363 0
-424 -364 0
-425 -365 0
-426 -366 0
-397 -367 0
-398 -368 0
-399 -369 0
-409 -382 0
-410 -383 0
-411 -384 0
-403 -388 0
-404 -389 0
-405 -390 0
-442 -388 0
-443 -389 0
-444 -390 0
-418 -394 0
-419 -395 0
-420 -396 0
-445 -394 0
-446 -395 0
-447 -396 0
-406 -397 0
-407 -398 0
-408 -399 0
-418 -412 0
-419 -413 0
-420 -414 0
-433 -412 0
-434 -413 0
-435 -414 0
-430 -418 0
-431 -419 0
-432 -420 0
-442 -424 0
-443 -425 0
-444 -426 0
-442 -427 0
-443 -428 0
-444 -429 0
